NAME :
TYPE : CCVRP
COMMENT :
DIMENSION : 441
CAPACITY : 900
EDGE_WEIGHT_TYPE : EUC_2D_DBL
NODE_COORD_TYPE: TWOD_COORD
NODE_COORD_SECTION
1 0.0000 0.0000
2 30.0000 0.0000
3 29.6946 4.2694
4 28.7848 8.4520
5 27.2890 12.4625
6 25.2376 16.2192
7 22.6725 19.6458
8 19.6458 22.6725
9 16.2192 25.2376
10 12.4624 27.2890
11 8.4520 28.7848
12 4.2694 29.6946
13 0.0000 30.0000
14 -4.2694 29.6946
15 -8.4520 28.7848
16 -12.4625 27.2890
17 -16.2192 25.2376
18 -19.6458 22.6725
19 -22.6725 19.6458
20 -25.2376 16.2192
21 -27.2890 12.4624
22 -28.7848 8.4520
23 -29.6946 4.2694
24 -30.0000 0.0000
25 -29.6946 -4.2694
26 -28.7848 -8.4520
27 -27.2890 -12.4625
28 -25.2376 -16.2192
29 -22.6725 -19.6458
30 -19.6458 -22.6725
31 -16.2192 -25.2376
32 -12.4624 -27.2890
33 -8.4520 -28.7848
34 -4.2694 -29.6946
35 0.0000 -30.0000
36 4.2694 -29.6946
37 8.4520 -28.7848
38 12.4625 -27.2890
39 16.2192 -25.2376
40 19.6458 -22.6725
41 22.6725 -19.6458
42 25.2376 -16.2192
43 27.2890 -12.4624
44 28.7848 -8.4520
45 29.6946 -4.2694
46 60.0000 0.0000
47 59.3893 8.5389
48 57.5696 16.9040
49 54.5779 24.9249
50 50.4752 32.4384
51 45.3450 39.2916
52 39.2916 45.3450
53 32.4384 50.4752
54 24.9249 54.5779
55 16.9040 57.5696
56 8.5389 59.3893
57 0.0000 60.0000
58 -8.5389 59.3893
59 -16.9040 57.5696
60 -24.9249 54.5779
61 -32.4385 50.4752
62 -39.2916 45.3450
63 -45.3450 39.2916
64 -50.4752 32.4384
65 -54.5779 24.9249
66 -57.5696 16.9039
67 -59.3893 8.5389
68 -60.0000 0.0000
69 -59.3893 -8.5389
70 -57.5696 -16.9040
71 -54.5779 -24.9249
72 -50.4752 -32.4385
73 -45.3450 -39.2916
74 -39.2916 -45.3450
75 -32.4384 -50.4752
76 -24.9249 -54.5779
77 -16.9039 -57.5696
78 -8.5389 -59.3893
79 0.0000 -60.0000
80 8.5389 -59.3893
81 16.9040 -57.5696
82 24.9249 -54.5779
83 32.4385 -50.4752
84 39.2917 -45.3450
85 45.3450 -39.2916
86 50.4752 -32.4384
87 54.5779 -24.9249
88 57.5696 -16.9039
89 59.3893 -8.5389
90 90.0000 0.0000
91 89.0839 12.8083
92 86.3544 25.3559
93 81.8669 37.3874
94 75.7128 48.6577
95 68.0175 58.9375
96 58.9375 68.0175
97 48.6577 75.7128
98 37.3873 81.8669
99 25.3559 86.3544
100 12.8083 89.0839
101 0.0000 90.0000
102 -12.8083 89.0839
103 -25.3559 86.3544
104 -37.3874 81.8669
105 -48.6577 75.7128
106 -58.9375 68.0175
107 -68.0175 58.9375
108 -75.7128 48.6577
109 -81.8669 37.3873
110 -86.3544 25.3559
111 -89.0839 12.8083
112 -90.0000 0.0000
113 -89.0839 -12.8083
114 -86.3544 -25.3559
115 -81.8669 -37.3874
116 -75.7128 -48.6577
117 -68.0175 -58.9375
118 -58.9375 -68.0175
119 -48.6577 -75.7128
120 -37.3873 -81.8669
121 -25.3559 -86.3544
122 -12.8083 -89.0839
123 0.0000 -90.0000
124 12.8083 -89.0839
125 25.3559 -86.3544
126 37.3874 -81.8669
127 48.6577 -75.7128
128 58.9375 -68.0175
129 68.0175 -58.9375
130 75.7128 -48.6577
131 81.8669 -37.3873
132 86.3544 -25.3559
133 89.0839 -12.8083
134 120.0000 0.0000
135 118.7786 17.0778
136 115.1392 33.8079
137 109.1558 49.8498
138 100.9504 64.8769
139 90.6899 78.5833
140 78.5833 90.6899
141 64.8769 100.9504
142 49.8498 109.1558
143 33.8079 115.1392
144 17.0778 118.7786
145 0.0000 120.0000
146 -17.0778 118.7786
147 -33.8079 115.1392
148 -49.8498 109.1558
149 -64.8769 100.9504
150 -78.5833 90.6899
151 -90.6900 78.5833
152 -100.9504 64.8769
153 -109.1558 49.8498
154 -115.1392 33.8079
155 -118.7786 17.0778
156 -120.0000 0.0000
157 -118.7786 -17.0778
158 -115.1392 -33.8079
159 -109.1558 -49.8498
160 -100.9504 -64.8769
161 -90.6899 -78.5833
162 -78.5833 -90.6900
163 -64.8769 -100.9504
164 -49.8498 -109.1558
165 -33.8079 -115.1392
166 -17.0778 -118.7786
167 0.0000 -120.0000
168 17.0778 -118.7786
169 33.8079 -115.1392
170 49.8498 -109.1558
171 64.8769 -100.9504
172 78.5833 -90.6899
173 90.6900 -78.5833
174 100.9504 -64.8769
175 109.1558 -49.8498
176 115.1392 -33.8079
177 118.7786 -17.0778
178 150.0000 0.0000
179 148.4732 21.3472
180 143.9240 42.2599
181 136.4448 62.3123
182 126.1880 81.0961
183 113.3624 98.2291
184 98.2291 113.3624
185 81.0961 126.1880
186 62.3122 136.4448
187 42.2599 143.9240
188 21.3472 148.4732
189 0.0000 150.0000
190 -21.3472 148.4732
191 -42.2599 143.9240
192 -62.3123 136.4448
193 -81.0961 126.1880
194 -98.2291 113.3624
195 -113.3624 98.2291
196 -126.1880 81.0961
197 -136.4448 62.3122
198 -143.9240 42.2599
199 -148.4732 21.3472
200 -150.0000 0.0000
201 -148.4732 -21.3472
202 -143.9239 -42.2599
203 -136.4448 -62.3123
204 -126.1880 -81.0961
205 -113.3624 -98.2291
206 -98.2291 -113.3624
207 -81.0961 -126.1880
208 -62.3122 -136.4448
209 -42.2599 -143.9240
210 -21.3472 -148.4732
211 0.0000 -150.0000
212 21.3472 -148.4732
213 42.2599 -143.9239
214 62.3123 -136.4448
215 81.0961 -126.1880
216 98.2291 -113.3624
217 113.3624 -98.2291
218 126.1880 -81.0961
219 136.4448 -62.3122
220 143.9240 -42.2599
221 148.4732 -21.3472
222 180.0000 0.0000
223 178.1679 25.6167
224 172.7087 50.7119
225 163.7338 74.7747
226 151.4256 97.3153
227 136.0349 117.8749
228 117.8749 136.0349
229 97.3153 151.4256
230 74.7747 163.7338
231 50.7119 172.7087
232 25.6167 178.1679
233 0.0000 180.0000
234 -25.6167 178.1679
235 -50.7119 172.7087
236 -74.7747 163.7337
237 -97.3154 151.4256
238 -117.8749 136.0349
239 -136.0349 117.8749
240 -151.4256 97.3153
241 -163.7338 74.7747
242 -172.7087 50.7118
243 -178.1679 25.6167
244 -180.0000 0.0000
245 -178.1679 -25.6167
246 -172.7087 -50.7119
247 -163.7337 -74.7747
248 -151.4256 -97.3154
249 -136.0349 -117.8749
250 -117.8749 -136.0349
251 -97.3153 -151.4256
252 -74.7747 -163.7338
253 -50.7118 -172.7087
254 -25.6166 -178.1679
255 0.0000 -180.0000
256 25.6167 -178.1679
257 50.7119 -172.7087
258 74.7747 -163.7337
259 97.3154 -151.4256
260 117.8750 -136.0349
261 136.0349 -117.8749
262 151.4256 -97.3153
263 163.7338 -74.7747
264 172.7087 -50.7118
265 178.1679 -25.6166
266 210.0000 0.0000
267 207.8625 29.8861
268 201.4935 59.1638
269 191.0227 87.2372
270 176.6632 113.5346
271 158.7074 137.5208
272 137.5208 158.7074
273 113.5346 176.6632
274 87.2371 191.0227
275 59.1638 201.4935
276 29.8861 207.8625
277 0.0000 210.0000
278 -29.8861 207.8625
279 -59.1638 201.4935
280 -87.2372 191.0227
281 -113.5346 176.6632
282 -137.5208 158.7074
283 -158.7074 137.5207
284 -176.6633 113.5346
285 -191.0227 87.2371
286 -201.4935 59.1638
287 -207.8625 29.8861
288 -210.0000 0.0000
289 -207.8625 -29.8861
290 -201.4935 -59.1639
291 -191.0227 -87.2372
292 -176.6632 -113.5346
293 -158.7074 -137.5208
294 -137.5207 -158.7074
295 -113.5346 -176.6633
296 -87.2371 -191.0227
297 -59.1638 -201.4935
298 -29.8861 -207.8625
299 0.0000 -210.0000
300 29.8861 -207.8625
301 59.1639 -201.4935
302 87.2372 -191.0227
303 113.5346 -176.6632
304 137.5208 -158.7074
305 158.7074 -137.5207
306 176.6633 -113.5345
307 191.0227 -87.2371
308 201.4935 -59.1638
309 207.8625 -29.8861
310 240.0000 0.0000
311 237.5571 34.1556
312 230.2783 67.6158
313 218.3117 99.6996
314 201.9008 129.7538
315 181.3799 157.1666
316 157.1666 181.3799
317 129.7538 201.9008
318 99.6996 218.3117
319 67.6158 230.2783
320 34.1556 237.5571
321 0.0000 240.0000
322 -34.1556 237.5571
323 -67.6158 230.2783
324 -99.6996 218.3117
325 -129.7538 201.9008
326 -157.1666 181.3799
327 -181.3799 157.1666
328 -201.9009 129.7538
329 -218.3117 99.6996
330 -230.2783 67.6158
331 -237.5571 34.1555
332 -240.0000 0.0000
333 -237.5571 -34.1556
334 -230.2783 -67.6158
335 -218.3117 -99.6996
336 -201.9008 -129.7538
337 -181.3799 -157.1666
338 -157.1665 -181.3799
339 -129.7538 -201.9009
340 -99.6996 -218.3117
341 -67.6158 -230.2783
342 -34.1555 -237.5571
343 0.0000 -240.0000
344 34.1556 -237.5571
345 67.6158 -230.2783
346 99.6996 -218.3117
347 129.7538 -201.9008
348 157.1666 -181.3799
349 181.3799 -157.1665
350 201.9009 -129.7538
351 218.3117 -99.6996
352 230.2783 -67.6158
353 237.5572 -34.1555
354 270.0000 0.0000
355 267.2518 38.4250
356 259.0631 76.0678
357 245.6006 112.1621
358 227.1385 145.9730
359 204.0524 176.8124
360 176.8124 204.0524
361 145.9730 227.1385
362 112.1620 245.6006
363 76.0678 259.0631
364 38.4250 267.2518
365 0.0000 270.0000
366 -38.4250 267.2518
367 -76.0678 259.0631
368 -112.1621 245.6006
369 -145.9730 227.1384
370 -176.8124 204.0524
371 -204.0524 176.8124
372 -227.1385 145.9730
373 -245.6006 112.1620
374 -259.0631 76.0678
375 -267.2518 38.4250
376 -270.0000 0.0000
377 -267.2518 -38.4250
378 -259.0631 -76.0678
379 -245.6006 -112.1621
380 -227.1384 -145.9730
381 -204.0524 -176.8124
382 -176.8124 -204.0524
383 -145.9730 -227.1385
384 -112.1620 -245.6006
385 -76.0678 -259.0631
386 -38.4250 -267.2518
387 0.0000 -270.0000
388 38.4250 -267.2518
389 76.0678 -259.0631
390 112.1621 -245.6006
391 145.9731 -227.1384
392 176.8124 -204.0524
393 204.0524 -176.8124
394 227.1385 -145.9730
395 245.6007 -112.1620
396 259.0631 -76.0677
397 267.2518 -38.4250
398 300.0000 0.0000
399 296.9464 42.6945
400 287.8479 84.5198
401 272.8896 124.6245
402 252.3761 162.1922
403 226.7249 196.4582
404 196.4582 226.7249
405 162.1922 252.3761
406 124.6245 272.8896
407 84.5198 287.8479
408 42.6944 296.9464
409 0.0000 300.0000
410 -42.6945 296.9464
411 -84.5198 287.8479
412 -124.6245 272.8896
413 -162.1923 252.3761
414 -196.4582 226.7249
415 -226.7249 196.4582
416 -252.3761 162.1922
417 -272.8896 124.6245
418 -287.8479 84.5197
419 -296.9464 42.6944
420 -300.0000 0.0000
421 -296.9464 -42.6945
422 -287.8479 -84.5198
423 -272.8896 -124.6245
424 -252.3760 -162.1923
425 -226.7249 -196.4583
426 -196.4582 -226.7249
427 -162.1922 -252.3761
428 -124.6245 -272.8896
429 -84.5197 -287.8479
430 -42.6944 -296.9464
431 0.0000 -300.0000
432 42.6945 -296.9464
433 84.5198 -287.8479
434 124.6245 -272.8896
435 162.1923 -252.3760
436 196.4583 -226.7248
437 226.7249 -196.4582
438 252.3761 -162.1922
439 272.8896 -124.6245
440 287.8479 -84.5197
441 296.9464 -42.6944
DEMAND_SECTION
1 0
2 10
3 30
4 30
5 10
6 10
7 30
8 30
9 10
10 10
11 30
12 30
13 10
14 10
15 30
16 30
17 10
18 10
19 30
20 30
21 10
22 10
23 30
24 30
25 10
26 10
27 30
28 30
29 10
30 10
31 30
32 30
33 10
34 10
35 30
36 30
37 10
38 10
39 30
40 30
41 10
42 10
43 30
44 30
45 10
46 10
47 30
48 30
49 10
50 10
51 30
52 30
53 10
54 10
55 30
56 30
57 10
58 10
59 30
60 30
61 10
62 10
63 30
64 30
65 10
66 10
67 30
68 30
69 10
70 10
71 30
72 30
73 10
74 10
75 30
76 30
77 10
78 10
79 30
80 30
81 10
82 10
83 30
84 30
85 10
86 10
87 30
88 30
89 10
90 10
91 30
92 30
93 10
94 10
95 30
96 30
97 10
98 10
99 30
100 30
101 10
102 10
103 30
104 30
105 10
106 10
107 30
108 30
109 10
110 10
111 30
112 30
113 10
114 10
115 30
116 30
117 10
118 10
119 30
120 30
121 10
122 10
123 30
124 30
125 10
126 10
127 30
128 30
129 10
130 10
131 30
132 30
133 10
134 10
135 30
136 30
137 10
138 10
139 30
140 30
141 10
142 10
143 30
144 30
145 10
146 10
147 30
148 30
149 10
150 10
151 30
152 30
153 10
154 10
155 30
156 30
157 10
158 10
159 30
160 30
161 10
162 10
163 30
164 30
165 10
166 10
167 30
168 30
169 10
170 10
171 30
172 30
173 10
174 10
175 30
176 30
177 10
178 10
179 30
180 30
181 10
182 10
183 30
184 30
185 10
186 10
187 30
188 30
189 10
190 10
191 30
192 30
193 10
194 10
195 30
196 30
197 10
198 10
199 30
200 30
201 10
202 10
203 30
204 30
205 10
206 10
207 30
208 30
209 10
210 10
211 30
212 30
213 10
214 10
215 30
216 30
217 10
218 10
219 30
220 30
221 10
222 10
223 30
224 30
225 10
226 10
227 30
228 30
229 10
230 10
231 30
232 30
233 10
234 10
235 30
236 30
237 10
238 10
239 30
240 30
241 10
242 10
243 30
244 30
245 10
246 10
247 30
248 30
249 10
250 10
251 30
252 30
253 10
254 10
255 30
256 30
257 10
258 10
259 30
260 30
261 10
262 10
263 30
264 30
265 10
266 10
267 30
268 30
269 10
270 10
271 30
272 30
273 10
274 10
275 30
276 30
277 10
278 10
279 30
280 30
281 10
282 10
283 30
284 30
285 10
286 10
287 30
288 30
289 10
290 10
291 30
292 30
293 10
294 10
295 30
296 30
297 10
298 10
299 30
300 30
301 10
302 10
303 30
304 30
305 10
306 10
307 30
308 30
309 10
310 10
311 30
312 30
313 10
314 10
315 30
316 30
317 10
318 10
319 30
320 30
321 10
322 10
323 30
324 30
325 10
326 10
327 30
328 30
329 10
330 10
331 30
332 30
333 10
334 10
335 30
336 30
337 10
338 10
339 30
340 30
341 10
342 10
343 30
344 30
345 10
346 10
347 30
348 30
349 10
350 10
351 30
352 30
353 10
354 10
355 30
356 30
357 10
358 10
359 30
360 30
361 10
362 10
363 30
364 30
365 10
366 10
367 30
368 30
369 10
370 10
371 30
372 30
373 10
374 10
375 30
376 30
377 10
378 10
379 30
380 30
381 10
382 10
383 30
384 30
385 10
386 10
387 30
388 30
389 10
390 10
391 30
392 30
393 10
394 10
395 30
396 30
397 10
398 10
399 30
400 30
401 10
402 10
403 30
404 30
405 10
406 10
407 30
408 30
409 10
410 10
411 30
412 30
413 10
414 10
415 30
416 30
417 10
418 10
419 30
420 30
421 10
422 10
423 30
424 30
425 10
426 10
427 30
428 30
429 10
430 10
431 30
432 30
433 10
434 10
435 30
436 30
437 10
438 10
439 30
440 30
441 10
CLUSTER_SECTION
1 21
2 6
3 6
4 6
5 6
6 6
7 5
8 5
9 5
10 5
11 5
12 5
13 5
14 5
15 5
16 5
17 5
18 5
19 5
20 5
21 4
22 4
23 4
24 4
25 4
26 4
27 4
28 4
29 4
30 4
31 4
32 4
33 4
34 7
35 7
36 7
37 7
38 7
39 6
40 6
41 6
42 6
43 6
44 6
45 6
46 6
47 6
48 6
49 6
50 6
51 6
52 6
53 6
54 6
55 6
56 8
57 8
58 5
59 5
60 5
61 5
62 5
63 5
64 5
65 4
66 4
67 4
68 4
69 4
70 4
71 4
72 3
73 3
74 3
75 3
76 3
77 4
78 7
79 7
80 7
81 7
82 7
83 7
84 7
85 7
86 7
87 7
88 7
89 6
90 9
91 9
92 9
93 8
94 8
95 8
96 8
97 8
98 8
99 8
100 8
101 8
102 8
103 8
104 8
105 8
106 8
107 10
108 10
109 10
110 10
111 10
112 4
113 4
114 3
115 3
116 3
117 3
118 3
119 3
120 3
121 3
122 3
123 7
124 7
125 7
126 7
127 7
128 11
129 11
130 9
131 9
132 9
133 9
134 9
135 9
136 9
137 9
138 9
139 9
140 9
141 8
142 8
143 8
144 8
145 8
146 8
147 8
148 10
149 10
150 10
151 10
152 10
153 10
154 10
155 10
156 10
157 12
158 3
159 3
160 3
161 3
162 3
163 2
164 2
165 2
166 2
167 2
168 11
169 11
170 11
171 11
172 11
173 11
174 11
175 11
176 9
177 9
178 9
179 9
180 9
181 9
182 9
183 13
184 13
185 13
186 13
187 13
188 14
189 14
190 14
191 14
192 10
193 10
194 10
195 10
196 10
197 10
198 10
199 12
200 12
201 12
202 12
203 3
204 3
205 3
206 2
207 2
208 2
209 2
210 2
211 2
212 2
213 11
214 11
215 11
216 11
217 11
218 11
219 11
220 11
221 15
222 15
223 15
224 13
225 13
226 13
227 13
228 13
229 13
230 13
231 14
232 14
233 14
234 14
235 14
236 14
237 16
238 16
239 16
240 12
241 12
242 12
243 12
244 12
245 12
246 12
247 12
248 12
249 3
250 2
251 2
252 2
253 2
254 1
255 2
256 2
257 17
258 11
259 11
260 11
261 11
262 11
263 15
264 15
265 15
266 15
267 15
268 13
269 13
270 13
271 13
272 13
273 13
274 13
275 14
276 14
277 14
278 14
279 14
280 14
281 16
282 16
283 16
284 16
285 16
286 12
287 12
288 12
289 12
290 12
291 12
292 12
293 18
294 17
295 2
296 1
297 1
298 1
299 1
300 1
301 17
302 17
303 17
304 17
305 15
306 15
307 15
308 15
309 15
310 15
311 15
312 15
313 19
314 13
315 13
316 13
317 19
318 14
319 14
320 14
321 14
322 14
323 16
324 16
325 16
326 16
327 16
328 16
329 20
330 20
331 18
332 18
333 12
334 18
335 18
336 18
337 18
338 18
339 17
340 1
341 1
342 1
343 1
344 1
345 17
346 17
347 17
348 17
349 17
350 15
351 15
352 15
353 15
354 15
355 20
356 19
357 19
358 19
359 19
360 19
361 19
362 19
363 19
364 19
365 19
366 16
367 16
368 16
369 16
370 16
371 16
372 20
373 20
374 20
375 20
376 18
377 18
378 18
379 18
380 18
381 18
382 18
383 17
384 1
385 1
386 1
387 1
388 1
389 17
390 17
391 17
392 17
393 17
394 17
395 20
396 15
397 15
398 20
399 20
400 19
401 19
402 19
403 19
404 19
405 19
406 19
407 19
408 19
409 19
410 19
411 20
412 16
413 16
414 16
415 20
416 20
417 20
418 20
419 20
420 18
421 18
422 18
423 18
424 18
425 18
426 18
427 18
428 1
429 1
430 1
431 1
432 1
433 17
434 17
435 17
436 17
437 17
438 17
439 20
440 20
441 20
DEPOT_SECTION
1
-1
EOF
